c description: Random 3-CNF over 15 variables and 65 clauses
c generator: CNFgen (0.9.0)
c copyright: (C) 2012-2020 Massimo Lauria <massimo.lauria@uniroma1.it>
c url: https://massimolauria.net/cnfgen
c
p cnf 15 65
2 3 -9 0
-3 -11 13 0
-2 -3 -12 0
4 12 -14 0
4 5 11 0
-1 7 -8 0
-1 -10 12 0
-11 12 13 0
1 -9 -10 0
6 10 -11 0
-3 10 15 0
-5 -8 14 0
-1 9 12 0
7 -10 -13 0
-1 5 8 0
-4 11 13 0
3 -7 -12 0
-6 8 -9 0
-2 -3 6 0
6 -10 -13 0
1 -5 14 0
-6 -11 13 0
5 13 15 0
-3 12 14 0
-3 6 7 0
3 -6 7 0
2 -6 -10 0
1 6 10 0
1 -3 6 0
-5 -11 -15 0
-7 -13 -14 0
-1 8 -9 0
-1 -4 -13 0
5 -6 7 0
-2 -8 10 0
-4 -5 -6 0
-7 8 -15 0
-1 -11 -15 0
1 4 -12 0
3 6 7 0
4 9 -14 0
3 -13 14 0
2 9 -10 0
6 11 -15 0
5 -6 -14 0
-2 -12 -15 0
6 -7 -8 0
2 6 -10 0
-4 -12 13 0
-4 12 13 0
-10 -13 -14 0
5 10 15 0
-4 5 -15 0
2 11 13 0
-4 12 -15 0
-3 -8 9 0
6 -7 -12 0
-4 5 -13 0
-1 13 15 0
3 -4 7 0
9 -13 14 0
6 8 -14 0
-3 8 12 0
-4 -9 -15 0
-2 4 -12 0